1
120
100
1 3
2 2
3 2
4 1
5 7
6 3
7 5
8 7
9 6
10 5
11 4
12 4
13 6
14 7
15 5
16 3
17 7
18 5
19 4
20 9
21 4
22 3
23 4
24 3
25 5
26 10
27 4
28 8
29 3
30 6
31 3
32 7
33 5
34 5
35 2
36 6
37 4
38 6
39 4
40 2
41 4
42 3
43 3
44 7
45 4
46 3
47 3
48 6
49 8
50 5
51 8
52 5
53 6
54 7
55 5
56 2
57 7
58 3
59 5
60 12
61 3
62 3
63 4
64 4
65 5
66 8
67 6
68 8
69 2
70 4
71 6
72 7
73 3
74 5
75 7
76 5
77 7
78 4
79 3
80 6
81 4
82 6
83 4
84 3
85 6
86 9
87 4
88 4
89 9
90 4
91 4
92 2
93 11
94 4
95 4
96 7
97 4
98 3
99 6
100 7
